benchmarks_vrp/CMT5/tsp_classic/CMT5_13.vrp
NAME: CMT5_13
TYPE: CVRP
COMMENT: 1291.29 - Cluster Nr.13
DIMENSION: 14
CAPACITY: 200
EDGE_WEIGHT_TYPE: EUC_2D
NODE_COORD_TYPE: TWOD_COORDS
NODE_COORD_SECTION: 
4 49 58
1 55 54
10 37 52
11 40 60
2 49 42
8 53 52
12 55 50
6 50 50
13 42 57
14 47 47
3 49 49
5 41 49
7 35 35
9 37 56
DEPOT_SECTION: 
7
-1
DEMAND_SECTION: 
6 15
11 21
4 10
12 10
2 13
13 8
3 30
10 7
7 0
8 11
9 5
1 26
5 10
14 13
EOF
