benchmarks_vrp/CMT5/tsp_classic/CMT5_13.tour
NAME: CMT5_13 solution
TYPE: TOUR
TOUR_SECTION:
7 2 14 3 6 8 12 1 4 13 11 9 10 5 -1
-1
EOF